c
c Generated WCNF file
c
p wcnf 191 894 47080
47080 20 0
47080 -21 1 0
47080 -21 2 0
47080 21 -1 -2 0
47080 -22 1 0
47080 -22 3 0
47080 22 -1 -3 0
47080 -23 1 0
47080 -23 4 0
47080 23 -1 -4 0
47080 -24 1 0
47080 -24 5 0
47080 24 -1 -5 0
47080 -25 1 0
47080 -25 6 0
47080 25 -1 -6 0
47080 -26 1 0
47080 -26 7 0
47080 26 -1 -7 0
47080 -27 1 0
47080 -27 8 0
47080 27 -1 -8 0
47080 -28 1 0
47080 -28 9 0
47080 28 -1 -9 0
47080 -29 1 0
47080 -29 10 0
47080 29 -1 -10 0
47080 -30 1 0
47080 -30 11 0
47080 30 -1 -11 0
47080 -31 1 0
47080 -31 12 0
47080 31 -1 -12 0
47080 -32 1 0
47080 -32 13 0
47080 32 -1 -13 0
47080 -33 1 0
47080 -33 14 0
47080 33 -1 -14 0
47080 -34 1 0
47080 -34 15 0
47080 34 -1 -15 0
47080 -35 1 0
47080 -35 16 0
47080 35 -1 -16 0
47080 -36 1 0
47080 -36 17 0
47080 36 -1 -17 0
47080 -37 1 0
47080 -37 18 0
47080 37 -1 -18 0
47080 -38 1 0
47080 -38 19 0
47080 38 -1 -19 0
47080 -39 2 0
47080 -39 3 0
47080 39 -2 -3 0
47080 -40 2 0
47080 -40 4 0
47080 40 -2 -4 0
47080 -41 2 0
47080 -41 5 0
47080 41 -2 -5 0
47080 -42 2 0
47080 -42 6 0
47080 42 -2 -6 0
47080 -43 2 0
47080 -43 7 0
47080 43 -2 -7 0
47080 -44 2 0
47080 -44 8 0
47080 44 -2 -8 0
47080 -45 2 0
47080 -45 9 0
47080 45 -2 -9 0
47080 -46 2 0
47080 -46 10 0
47080 46 -2 -10 0
47080 -47 2 0
47080 -47 11 0
47080 47 -2 -11 0
47080 -48 2 0
47080 -48 12 0
47080 48 -2 -12 0
47080 -49 2 0
47080 -49 13 0
47080 49 -2 -13 0
47080 -50 2 0
47080 -50 14 0
47080 50 -2 -14 0
47080 -51 2 0
47080 -51 15 0
47080 51 -2 -15 0
47080 -52 2 0
47080 -52 16 0
47080 52 -2 -16 0
47080 -53 2 0
47080 -53 17 0
47080 53 -2 -17 0
47080 -54 2 0
47080 -54 18 0
47080 54 -2 -18 0
47080 -55 2 0
47080 -55 19 0
47080 55 -2 -19 0
47080 -56 3 0
47080 -56 4 0
47080 56 -3 -4 0
47080 -57 3 0
47080 -57 5 0
47080 57 -3 -5 0
47080 -58 3 0
47080 -58 6 0
47080 58 -3 -6 0
47080 -59 3 0
47080 -59 7 0
47080 59 -3 -7 0
47080 -60 3 0
47080 -60 8 0
47080 60 -3 -8 0
47080 -61 3 0
47080 -61 9 0
47080 61 -3 -9 0
47080 -62 3 0
47080 -62 10 0
47080 62 -3 -10 0
47080 -63 3 0
47080 -63 11 0
47080 63 -3 -11 0
47080 -64 3 0
47080 -64 12 0
47080 64 -3 -12 0
47080 -65 3 0
47080 -65 13 0
47080 65 -3 -13 0
47080 -66 3 0
47080 -66 14 0
47080 66 -3 -14 0
47080 -67 3 0
47080 -67 15 0
47080 67 -3 -15 0
47080 -68 3 0
47080 -68 16 0
47080 68 -3 -16 0
47080 -69 3 0
47080 -69 17 0
47080 69 -3 -17 0
47080 -70 3 0
47080 -70 18 0
47080 70 -3 -18 0
47080 -71 3 0
47080 -71 19 0
47080 71 -3 -19 0
47080 -72 4 0
47080 -72 5 0
47080 72 -4 -5 0
47080 -73 4 0
47080 -73 6 0
47080 73 -4 -6 0
47080 -74 4 0
47080 -74 7 0
47080 74 -4 -7 0
47080 -75 4 0
47080 -75 8 0
47080 75 -4 -8 0
47080 -76 4 0
47080 -76 9 0
47080 76 -4 -9 0
47080 -77 4 0
47080 -77 10 0
47080 77 -4 -10 0
47080 -78 4 0
47080 -78 11 0
47080 78 -4 -11 0
47080 -79 4 0
47080 -79 12 0
47080 79 -4 -12 0
47080 -80 4 0
47080 -80 13 0
47080 80 -4 -13 0
47080 -81 4 0
47080 -81 14 0
47080 81 -4 -14 0
47080 -82 4 0
47080 -82 15 0
47080 82 -4 -15 0
47080 -83 4 0
47080 -83 16 0
47080 83 -4 -16 0
47080 -84 4 0
47080 -84 17 0
47080 84 -4 -17 0
47080 -85 4 0
47080 -85 18 0
47080 85 -4 -18 0
47080 -86 4 0
47080 -86 19 0
47080 86 -4 -19 0
47080 -87 5 0
47080 -87 6 0
47080 87 -5 -6 0
47080 -88 5 0
47080 -88 7 0
47080 88 -5 -7 0
47080 -89 5 0
47080 -89 8 0
47080 89 -5 -8 0
47080 -90 5 0
47080 -90 9 0
47080 90 -5 -9 0
47080 -91 5 0
47080 -91 10 0
47080 91 -5 -10 0
47080 -92 5 0
47080 -92 11 0
47080 92 -5 -11 0
47080 -93 5 0
47080 -93 12 0
47080 93 -5 -12 0
47080 -94 5 0
47080 -94 13 0
47080 94 -5 -13 0
47080 -95 5 0
47080 -95 14 0
47080 95 -5 -14 0
47080 -96 5 0
47080 -96 15 0
47080 96 -5 -15 0
47080 -97 5 0
47080 -97 16 0
47080 97 -5 -16 0
47080 -98 5 0
47080 -98 17 0
47080 98 -5 -17 0
47080 -99 5 0
47080 -99 18 0
47080 99 -5 -18 0
47080 -100 5 0
47080 -100 19 0
47080 100 -5 -19 0
47080 -101 6 0
47080 -101 7 0
47080 101 -6 -7 0
47080 -102 6 0
47080 -102 8 0
47080 102 -6 -8 0
47080 -103 6 0
47080 -103 9 0
47080 103 -6 -9 0
47080 -104 6 0
47080 -104 10 0
47080 104 -6 -10 0
47080 -105 6 0
47080 -105 11 0
47080 105 -6 -11 0
47080 -106 6 0
47080 -106 12 0
47080 106 -6 -12 0
47080 -107 6 0
47080 -107 13 0
47080 107 -6 -13 0
47080 -108 6 0
47080 -108 14 0
47080 108 -6 -14 0
47080 -109 6 0
47080 -109 15 0
47080 109 -6 -15 0
47080 -110 6 0
47080 -110 16 0
47080 110 -6 -16 0
47080 -111 6 0
47080 -111 17 0
47080 111 -6 -17 0
47080 -112 6 0
47080 -112 18 0
47080 112 -6 -18 0
47080 -113 6 0
47080 -113 19 0
47080 113 -6 -19 0
47080 -114 7 0
47080 -114 8 0
47080 114 -7 -8 0
47080 -115 7 0
47080 -115 9 0
47080 115 -7 -9 0
47080 -116 7 0
47080 -116 10 0
47080 116 -7 -10 0
47080 -117 7 0
47080 -117 11 0
47080 117 -7 -11 0
47080 -118 7 0
47080 -118 12 0
47080 118 -7 -12 0
47080 -119 7 0
47080 -119 13 0
47080 119 -7 -13 0
47080 -120 7 0
47080 -120 14 0
47080 120 -7 -14 0
47080 -121 7 0
47080 -121 15 0
47080 121 -7 -15 0
47080 -122 7 0
47080 -122 16 0
47080 122 -7 -16 0
47080 -123 7 0
47080 -123 17 0
47080 123 -7 -17 0
47080 -124 7 0
47080 -124 18 0
47080 124 -7 -18 0
47080 -125 7 0
47080 -125 19 0
47080 125 -7 -19 0
47080 -126 8 0
47080 -126 9 0
47080 126 -8 -9 0
47080 -127 8 0
47080 -127 10 0
47080 127 -8 -10 0
47080 -128 8 0
47080 -128 11 0
47080 128 -8 -11 0
47080 -129 8 0
47080 -129 12 0
47080 129 -8 -12 0
47080 -130 8 0
47080 -130 13 0
47080 130 -8 -13 0
47080 -131 8 0
47080 -131 14 0
47080 131 -8 -14 0
47080 -132 8 0
47080 -132 15 0
47080 132 -8 -15 0
47080 -133 8 0
47080 -133 16 0
47080 133 -8 -16 0
47080 -134 8 0
47080 -134 17 0
47080 134 -8 -17 0
47080 -135 8 0
47080 -135 18 0
47080 135 -8 -18 0
47080 -136 8 0
47080 -136 19 0
47080 136 -8 -19 0
47080 -137 9 0
47080 -137 10 0
47080 137 -9 -10 0
47080 -138 9 0
47080 -138 11 0
47080 138 -9 -11 0
47080 -139 9 0
47080 -139 12 0
47080 139 -9 -12 0
47080 -140 9 0
47080 -140 13 0
47080 140 -9 -13 0
47080 -141 9 0
47080 -141 14 0
47080 141 -9 -14 0
47080 -142 9 0
47080 -142 15 0
47080 142 -9 -15 0
47080 -143 9 0
47080 -143 16 0
47080 143 -9 -16 0
47080 -144 9 0
47080 -144 17 0
47080 144 -9 -17 0
47080 -145 9 0
47080 -145 18 0
47080 145 -9 -18 0
47080 -146 9 0
47080 -146 19 0
47080 146 -9 -19 0
47080 -147 10 0
47080 -147 11 0
47080 147 -10 -11 0
47080 -148 10 0
47080 -148 12 0
47080 148 -10 -12 0
47080 -149 10 0
47080 -149 13 0
47080 149 -10 -13 0
47080 -150 10 0
47080 -150 14 0
47080 150 -10 -14 0
47080 -151 10 0
47080 -151 15 0
47080 151 -10 -15 0
47080 -152 10 0
47080 -152 16 0
47080 152 -10 -16 0
47080 -153 10 0
47080 -153 17 0
47080 153 -10 -17 0
47080 -154 10 0
47080 -154 18 0
47080 154 -10 -18 0
47080 -155 10 0
47080 -155 19 0
47080 155 -10 -19 0
47080 -156 11 0
47080 -156 12 0
47080 156 -11 -12 0
47080 -157 11 0
47080 -157 13 0
47080 157 -11 -13 0
47080 -158 11 0
47080 -158 14 0
47080 158 -11 -14 0
47080 -159 11 0
47080 -159 15 0
47080 159 -11 -15 0
47080 -160 11 0
47080 -160 16 0
47080 160 -11 -16 0
47080 -161 11 0
47080 -161 17 0
47080 161 -11 -17 0
47080 -162 11 0
47080 -162 18 0
47080 162 -11 -18 0
47080 -163 11 0
47080 -163 19 0
47080 163 -11 -19 0
47080 -164 12 0
47080 -164 13 0
47080 164 -12 -13 0
47080 -165 12 0
47080 -165 14 0
47080 165 -12 -14 0
47080 -166 12 0
47080 -166 15 0
47080 166 -12 -15 0
47080 -167 12 0
47080 -167 16 0
47080 167 -12 -16 0
47080 -168 12 0
47080 -168 17 0
47080 168 -12 -17 0
47080 -169 12 0
47080 -169 18 0
47080 169 -12 -18 0
47080 -170 12 0
47080 -170 19 0
47080 170 -12 -19 0
47080 -171 13 0
47080 -171 14 0
47080 171 -13 -14 0
47080 -172 13 0
47080 -172 15 0
47080 172 -13 -15 0
47080 -173 13 0
47080 -173 16 0
47080 173 -13 -16 0
47080 -174 13 0
47080 -174 17 0
47080 174 -13 -17 0
47080 -175 13 0
47080 -175 18 0
47080 175 -13 -18 0
47080 -176 13 0
47080 -176 19 0
47080 176 -13 -19 0
47080 -177 14 0
47080 -177 15 0
47080 177 -14 -15 0
47080 -178 14 0
47080 -178 16 0
47080 178 -14 -16 0
47080 -179 14 0
47080 -179 17 0
47080 179 -14 -17 0
47080 -180 14 0
47080 -180 18 0
47080 180 -14 -18 0
47080 -181 14 0
47080 -181 19 0
47080 181 -14 -19 0
47080 -182 15 0
47080 -182 16 0
47080 182 -15 -16 0
47080 -183 15 0
47080 -183 17 0
47080 183 -15 -17 0
47080 -184 15 0
47080 -184 18 0
47080 184 -15 -18 0
47080 -185 15 0
47080 -185 19 0
47080 185 -15 -19 0
47080 -186 16 0
47080 -186 17 0
47080 186 -16 -17 0
47080 -187 16 0
47080 -187 18 0
47080 187 -16 -18 0
47080 -188 16 0
47080 -188 19 0
47080 188 -16 -19 0
47080 -189 17 0
47080 -189 18 0
47080 189 -17 -18 0
47080 -190 17 0
47080 -190 19 0
47080 190 -17 -19 0
47080 -191 18 0
47080 -191 19 0
47080 191 -18 -19 0
28452 1 0
47070 -1 0
30138 21 0
47070 -21 0
51248 22 0
47070 -22 0
47168 23 0
47070 -23 0
47162 24 0
47070 -24 0
53548 25 0
47070 -25 0
41180 26 0
47070 -26 0
48260 27 0
47070 -27 0
52040 28 0
47070 -28 0
38280 29 0
47070 -29 0
49188 30 0
47070 -30 0
46996 31 0
47070 -31 0
54796 32 0
47070 -32 0
53258 33 0
47070 -33 0
47188 34 0
47070 -34 0
53948 35 0
47070 -35 0
50684 36 0
47070 -36 0
45594 37 0
47070 -37 0
49488 38 0
47070 -38 0
31076 2 0
47070 -2 0
48748 39 0
47070 -39 0
53134 40 0
47070 -40 0
57564 41 0
47070 -41 0
53164 42 0
47070 -42 0
55316 43 0
47070 -43 0
42212 44 0
47070 -44 0
45736 45 0
47070 -45 0
39552 46 0
47070 -46 0
41724 47 0
47070 -47 0
45072 48 0
47070 -48 0
41070 49 0
47070 -49 0
53360 50 0
47070 -50 0
44608 51 0
47070 -51 0
56578 52 0
47070 -52 0
54852 53 0
47070 -53 0
52048 54 0
47070 -54 0
44156 55 0
47070 -55 0
31903 3 0
47070 -3 0
50108 56 0
47070 -56 0
52472 57 0
47070 -57 0
43172 58 0
47070 -58 0
52156 59 0
47070 -59 0
44442 60 0
47070 -60 0
43510 61 0
47070 -61 0
53452 62 0
47070 -62 0
47984 63 0
47070 -63 0
49608 64 0
47070 -64 0
46176 65 0
47070 -65 0
49092 66 0
47070 -66 0
46232 67 0
47070 -67 0
44238 68 0
47070 -68 0
43760 69 0
47070 -69 0
45002 70 0
47070 -70 0
48124 71 0
47070 -71 0
39655 4 0
47070 -4 0
52594 72 0
47070 -72 0
51232 73 0
47070 -73 0
42894 74 0
47070 -74 0
50466 75 0
47070 -75 0
51742 76 0
47070 -76 0
45930 77 0
47070 -77 0
53494 78 0
47070 -78 0
50220 79 0
47070 -79 0
53008 80 0
47070 -80 0
46420 81 0
47070 -81 0
50720 82 0
47070 -82 0
46720 83 0
47070 -83 0
41738 84 0
47070 -84 0
42762 85 0
47070 -85 0
49674 86 0
47070 -86 0
31072 5 0
47070 -5 0
54222 87 0
47070 -87 0
50302 88 0
47070 -88 0
40806 89 0
47070 -89 0
52182 90 0
47070 -90 0
48406 91 0
47070 -91 0
44718 92 0
47070 -92 0
47284 93 0
47070 -93 0
44490 94 0
47070 -94 0
50158 95 0
47070 -95 0
46724 96 0
47070 -96 0
52862 97 0
47070 -97 0
49842 98 0
47070 -98 0
47748 99 0
47070 -99 0
47256 100 0
47070 -100 0
40921 6 0
47070 -6 0
34024 101 0
47070 -101 0
51132 102 0
47070 -102 0
41134 103 0
47070 -103 0
46390 104 0
47070 -104 0
58018 105 0
47070 -105 0
50032 106 0
47070 -106 0
52770 107 0
47070 -107 0
37518 108 0
47070 -108 0
51190 109 0
47070 -109 0
38458 110 0
47070 -110 0
41424 111 0
47070 -111 0
44374 112 0
47070 -112 0
48248 113 0
47070 -113 0
40980 7 0
47070 -7 0
53994 114 0
47070 -114 0
42400 115 0
47070 -115 0
49322 116 0
47070 -116 0
50646 117 0
47070 -117 0
41872 118 0
47070 -118 0
55634 119 0
47070 -119 0
35868 120 0
47070 -120 0
52574 121 0
47070 -121 0
36578 122 0
47070 -122 0
38616 123 0
47070 -123 0
42418 124 0
47070 -124 0
49736 125 0
47070 -125 0
34391 8 0
47070 -8 0
48768 126 0
47070 -126 0
46204 127 0
47070 -127 0
48538 128 0
47070 -128 0
47502 129 0
47070 -129 0
42426 130 0
47070 -130 0
50126 131 0
47070 -131 0
47868 132 0
47070 -132 0
54982 133 0
47070 -133 0
51380 134 0
47070 -134 0
50202 135 0
47070 -135 0
45024 136 0
47070 -136 0
42075 9 0
47070 -9 0
47618 137 0
47070 -137 0
41920 138 0
47070 -138 0
43754 139 0
47070 -139 0
41234 140 0
47070 -140 0
44732 141 0
47070 -141 0
44788 142 0
47070 -142 0
40276 143 0
47070 -143 0
44754 144 0
47070 -144 0
47772 145 0
47070 -145 0
45954 146 0
47070 -146 0
47808 10 0
47070 -10 0
47480 147 0
47070 -147 0
49852 148 0
47070 -148 0
45002 149 0
47070 -149 0
50372 150 0
47070 -150 0
45036 151 0
47070 -151 0
51808 152 0
47070 -152 0
51672 153 0
47070 -153 0
49170 154 0
47070 -154 0
46140 155 0
47070 -155 0
31367 11 0
47070 -11 0
38898 156 0
47070 -156 0
41742 157 0
47070 -157 0
50620 158 0
47070 -158 0
41052 159 0
47070 -159 0
45290 160 0
47070 -160 0
51062 161 0
47070 -161 0
50708 162 0
47070 -162 0
44776 163 0
47070 -163 0
41522 12 0
47070 -12 0
46890 164 0
47070 -164 0
45860 165 0
47070 -165 0
46956 166 0
47070 -166 0
44512 167 0
47070 -167 0
46396 168 0
47070 -168 0
48058 169 0
47070 -169 0
46016 170 0
47070 -170 0
36122 13 0
47070 -13 0
50792 171 0
47070 -171 0
41430 172 0
47070 -172 0
51450 173 0
47070 -173 0
51266 174 0
47070 -174 0
50888 175 0
47070 -175 0
44776 176 0
47070 -176 0
42742 14 0
47070 -14 0
51426 177 0
47070 -177 0
38544 178 0
47070 -178 0
42230 179 0
47070 -179 0
45592 180 0
47070 -180 0
47504 181 0
47070 -181 0
43473 15 0
47070 -15 0
48168 182 0
47070 -182 0
50188 183 0
47070 -183 0
48562 184 0
47070 -184 0
46574 185 0
47070 -185 0
42310 16 0
47070 -16 0
40910 186 0
47070 -186 0
44552 187 0
47070 -187 0
48124 188 0
47070 -188 0
45754 17 0
47070 -17 0
43588 189 0
47070 -189 0
48806 190 0
47070 -190 0
46814 18 0
47070 -18 0
49364 191 0
47070 -191 0
45365 19 0
47070 -19 0
